34 78 011
16 2 1 3 1 4 1 5 1 6 1 7 1 8 1 9 1 11 1 12 1 13 1 14 1 18 1 20 1 22 1 32 1
9 1 1 3 1 4 1 8 1 14 1 18 1 20 1 22 1 31 1
10 1 1 2 1 4 1 8 1 9 1 10 1 14 1 28 1 29 1 33 1
6 1 1 2 1 3 1 8 1 13 1 14 1
3 1 1 7 1 11 1
4 1 1 7 1 11 1 17 1
4 1 1 5 1 6 1 17 1
4 1 1 2 1 3 1 4 1
5 1 1 3 1 31 1 33 1 34 1
2 3 1 34 1
3 1 1 5 1 6 1
1 1 1
2 1 1 4 1
5 1 1 2 1 3 1 4 1 34 1
2 33 1 34 1
2 33 1 34 1
2 6 1 7 1
2 1 1 2 1
2 33 1 34 1
3 1 1 2 1 34 1
2 33 1 34 1
2 1 1 2 1
2 33 1 34 1
5 28 1 33 1 34 1 26 1 30 1
3 32 1 28 1 26 1
3 32 1 24 1 25 1
2 34 1 30 1
4 3 1 24 1 25 1 34 1
3 3 1 32 1 34 1
4 33 1 34 1 24 1 27 1
4 2 1 9 1 33 1 34 1
6 1 1 25 1 26 1 29 1 33 1 34 1
12 3 1 9 1 32 1 31 1 15 1 16 1 19 1 21 1 23 1 24 1 30 1 34 1
17 9 1 14 1 20 1 32 1 31 1 10 1 28 1 29 1 33 1 15 1 16 1 19 1 21 1 23 1 24 1 27 1 30 1
